19 97 95 56 98 13 1 71 29 84 53 66 87 79 58 82 0 83 91 36 80 20 22 85 60 11 9 51 40 76 44 61 55 64 99 41 69 57 27 48 8 67 39 68 31 81 47 16 72 17 6 23 35 74 21 78 77 43 2 14 3 12 70 63 18 42 30 32 25 89 62 96 38 93 86 4 73 24 75 5 15 52 49 28 92 59 34 10 88 46 37 26 54 94 50 90 7 33 45 65 

